Problem:    
Rows:       248
Columns:    89 (72 integer, 72 binary)
Non-zeros:  820
Status:     INTEGER OPTIMAL
Objective:  value = 18.056016 (MINimum)

   No.   Row name        Activity     Lower bound   Upper bound
------ ------------    ------------- ------------- -------------
     1 r.5                   2018.06             0               
     2 r.6                  -1995.82       -1998.4               
     3 r.7                    18.056             0               
     4 r.8                   -1969.7      -1993.59               
     5 r.9                    18.056             0               
     6 r.10                  3.46439      -1998.18               
     7 r.11                  2018.06             0               
     8 r.12                 -1990.87      -1993.19               
     9 r.13                  2018.06             0               
    10 r.14                 -1989.62      -1997.51               
    11 r.15                   18.056             0               
    12 r.16                  2.32351      -1989.63               
    13 r.17                  2018.06             0               
    14 r.18                 -1994.69      -1998.87               
    15 r.19                   18.056             0               
    16 r.20                 -14.0728      -1994.62               
    17 r.21                  2018.06             0               
    18 r.22                 -1992.97      -1998.28               
    19 r.23                   18.056             0               
    20 r.24                 -19.4493      -1993.34               
    21 r.25                  2018.06             0               
    22 r.26                 -1985.74      -1996.13               
    23 r.27                   18.056             0               
    24 r.28                 -8.04831      -1993.98               
    25 r.29                  2018.06             0               
    26 r.30                 -1981.94       -1996.2               
    27 r.31                   18.056             0               
    28 r.32                 -1976.11      -1993.72               
    29 r.33                  2018.06             0               
    30 r.34                 -1999.92      -1999.92               
    31 r.35                   18.056             0               
    32 r.36                 -1996.93      -1996.93               
    33 r.37                        1             1             = 
    34 r.38                        1             1             = 
    35 r.39                        1             1             = 
    36 r.40                        1             1             = 
    37 r.41                        1             1             = 
    38 r.42                        1             1             = 
    39 r.43                        1             1             = 
    40 r.44                        1             1             = 
    41 r.45                  1999.29       1.82039               
    42 r.46                  -1998.4       -1998.4               
    43 r.47                  1978.83       6.80673               
    44 r.48                  -1980.6      -1993.59               
    45 r.49                  6.20371        2.4897               
    46 r.50                 -6.20371       -1998.4               
    47 r.51                  1972.02       10.3718               
    48 r.52                 -1972.02      -1993.59               
    49 r.53                  1.12653       1.12653               
    50 r.54                 -1.12653       -1998.4               
    51 r.55                  1955.62       5.37651               
    52 r.56                 -1955.62      -1993.59               
    53 r.57                  2.84821       1.72168               
    54 r.58                 -2.84821       -1998.4               
    55 r.59                  1950.25       6.66423               
    56 r.60                 -1950.25      -1993.59               
    57 r.61                 -1989.92      -1992.77               
    58 r.62                 -12.2269      -1987.26               
    59 r.63                 -16.0473      -1992.77               
    60 r.64                  1961.65      -1987.26               
    61 r.65                  13.8774       3.80037               
    62 r.66                 -13.8774       -1998.4               
    63 r.67                  1993.59       6.27917               
    64 r.68                 -1993.59      -1993.59               
    65 r.69                  -1995.9       -1995.9               
    66 r.70                 -1969.78      -1988.59               
    67 r.71                  1.10572       -1995.9               
    68 r.72                  27.2301      -1988.59               
    69 r.73                  1.59918       1.59918               
    70 r.74                 -1.59918      -1998.18               
    71 r.75                  19.4028       6.41265               
    72 r.76                 -19.4028      -1993.19               
    73 r.77                  7.80289        2.4897               
    74 r.78                 -7.80289      -1998.18               
    75 r.79                  1991.42       10.3718               
    76 r.80                 -1991.42      -1993.19               
    77 r.81                  2.72571       1.12653               
    78 r.82                 -2.72571      -1998.18               
    79 r.83                  1975.03       5.37651               
    80 r.84                 -1975.03      -1993.19               
    81 r.85                  4.44739       1.72168               
    82 r.86                 -4.44739      -1998.18               
    83 r.87                  1969.65       6.66423               
    84 r.88                 -1969.65      -1993.19               
    85 r.89                  11.6762       3.87331               
    86 r.90                 -11.6762      -1998.18               
    87 r.91                  1981.05        6.0245               
    88 r.92                 -1981.05      -1993.19               
    89 r.93                 -1984.52      -1992.84               
    90 r.94                 -1978.69      -1987.01               
    91 r.95                 -1992.84      -1992.84               
    92 r.96                 -1987.01      -1987.01               
    93 r.97                      2.5      -1997.29               
    94 r.98                 -1989.18      -1991.42               
    95 r.99                  1999.51      -1997.29               
    96 r.100                 7.82724      -1991.42               
    97 r.101                  1993.8       1.59918               
    98 r.102                 -1993.8      -1997.51               
    99 r.103                 27.9795       6.41265               
   100 r.104                -27.9795      -1989.63               
   101 r.105                 1993.08       1.82039               
   102 r.106                 -1992.2      -1997.51               
   103 r.107                 6.80673       6.80673               
   104 r.108                -8.57663      -1989.63               
   105 r.109                -1994.92      -1996.63               
   106 r.110                -2.98164      -1987.86               
   107 r.111                -1975.54      -1996.63               
   108 r.112                 16.3963      -1987.86               
   109 r.113                 1996.64       1.72168               
   110 r.114                -1996.64      -1997.51               
   111 r.115                 1978.23       6.66423               
   112 r.116                -1978.23      -1989.63               
   113 r.117                 3.87331       3.87331               
   114 r.118                -3.87331      -1997.51               
   115 r.119                 1989.63        6.0245               
   116 r.120                -1989.63      -1989.63               
   117 r.121                -1992.33      -1992.84               
   118 r.122                -1986.49      -1987.01               
   119 r.123                -1984.27      -1992.84               
   120 r.124                -1978.43      -1987.01               
   121 r.125                 -1989.7      -1996.63               
   122 r.126                 2.24406      -1987.86               
   123 r.127                 7.30943      -1996.63               
   124 r.128                 1999.25      -1987.86               
   125 r.129                 1998.87       1.59918               
   126 r.130                -1998.87      -1998.87               
   127 r.131                 44.3758       6.41265               
   128 r.132                -44.3758      -1994.62               
   129 r.133                 1998.16       1.82039               
   130 r.134                -1997.27      -1998.87               
   131 r.135                  23.203       6.80673               
   132 r.136                -24.9729      -1994.62               
   133 r.137                -1994.92      -1996.63               
   134 r.138                -2.98164      -1987.86               
   135 r.139                -1975.54      -1996.63               
   136 r.140                 16.3963      -1987.86               
   137 r.141                 1.72168       1.72168               
   138 r.142                -1.72168      -1998.87               
   139 r.143                 1994.62       6.66423               
   140 r.144                -1994.62      -1994.62               
   141 r.145                 8.95049       3.87331               
   142 r.146                -8.95049      -1998.87               
   143 r.147                  6.0245        6.0245               
   144 r.148                 -6.0245      -1994.62               
   145 r.149                -1987.25      -1992.84               
   146 r.150                -1981.41      -1987.01               
   147 r.151                -1967.87      -1992.84               
   148 r.152                -1962.04      -1987.01               
   149 r.153                -1994.77       -1995.3               
   150 r.154                -14.1523      -1987.47               
   151 r.155                 2.23225       -1995.3               
   152 r.156                 1982.85      -1987.47               
   153 r.157                 1997.15       1.59918               
   154 r.158                -1997.15      -1998.28               
   155 r.159                 49.7523       6.41265               
   156 r.160                -49.7523      -1993.34               
   157 r.161                 1996.44       1.82039               
   158 r.162                -1995.55      -1998.28               
   159 r.163                 28.5796       6.80673               
   160 r.164                -30.3495      -1993.34               
   161 r.165                  3.3555        2.4897               
   162 r.166                 -3.3555      -1998.28               
   163 r.167                 21.7728       10.3718               
   164 r.168                -21.7728      -1993.34               
   165 r.169                 1998.28       1.12653               
   166 r.170                -1998.28      -1998.28               
   167 r.171                 5.37651       5.37651               
   168 r.172                -5.37651      -1993.34               
   169 r.173                -1992.77      -1992.77               
   170 r.174                -15.0751      -1987.26               
   171 r.175                 -1966.3      -1992.77               
   172 r.176                  11.401      -1987.26               
   173 r.177                -1988.97      -1992.84               
   174 r.178                -1983.14      -1987.01               
   175 r.179                -1962.49      -1992.84               
   176 r.180                -1956.66      -1987.01               
   177 r.181                -1993.05      -1994.89               
   178 r.182                -19.5288      -1986.57               
   179 r.183                 3.95393      -1994.89               
   180 r.184                 1977.48      -1986.57               
   181 r.185                -1989.92      -1992.77               
   182 r.186                -12.2269      -1987.26               
   183 r.187                -16.0473      -1992.77               
   184 r.188                 1961.65      -1987.26               
   185 r.189                 1989.21       1.82039               
   186 r.190                -1988.32      -1996.13               
   187 r.191                 17.1785       6.80673               
   188 r.192                -18.9484      -1993.98               
   189 r.193                 1996.13        2.4897               
   190 r.194                -1996.13      -1996.13               
   191 r.195                 10.3718       10.3718               
   192 r.196                -10.3718      -1993.98               
   193 r.197                 1991.05       1.12653               
   194 r.198                -1991.05      -1996.13               
   195 r.199                 1993.98       5.37651               
   196 r.200                -1993.98      -1993.98               
   197 r.201                -1992.77      -1992.77               
   198 r.202                -15.0751      -1987.26               
   199 r.203                 -1966.3      -1992.77               
   200 r.204                  11.401      -1987.26               
   201 r.205                 3.80038       3.80037               
   202 r.206                -3.80038      -1996.13               
   203 r.207                 31.9386       6.27917               
   204 r.208                -31.9386      -1993.98               
   205 r.209                 1986.12       1.59918               
   206 r.210                -1986.12       -1996.2               
   207 r.211                 6.41265       6.41265               
   208 r.212                -6.41265      -1993.72               
   209 r.213                -1984.52      -1992.84               
   210 r.214                -1978.69      -1987.01               
   211 r.215                -1992.84      -1992.84               
   212 r.216                -1987.01      -1987.01               
   213 r.217                -1992.33      -1992.84               
   214 r.218                -1986.49      -1987.01               
   215 r.219                -1984.27      -1992.84               
   216 r.220                -1978.43      -1987.01               
   217 r.221                -1987.25      -1992.84               
   218 r.222                -1981.41      -1987.01               
   219 r.223                -1967.87      -1992.84               
   220 r.224                -1962.04      -1987.01               
   221 r.225                -1988.97      -1992.84               
   222 r.226                -1983.14      -1987.01               
   223 r.227                -1962.49      -1992.84               
   224 r.228                -1956.66      -1987.01               
   225 r.229                  1996.2       3.87331               
   226 r.230                 -1996.2       -1996.2               
   227 r.231                 1968.06        6.0245               
   228 r.232                -1968.06      -1993.72               
   229 r.233                 -1995.9       -1995.9               
   230 r.234                -1969.78      -1988.59               
   231 r.235                 1.10572       -1995.9               
   232 r.236                 27.2301      -1988.59               
   233 r.237                     2.5      -1997.29               
   234 r.238                -1989.18      -1991.42               
   235 r.239                 1999.51      -1997.29               
   236 r.240                 7.82724      -1991.42               
   237 r.241                 -1989.7      -1996.63               
   238 r.242                 2.24406      -1987.86               
   239 r.243                 7.30943      -1996.63               
   240 r.244                 1999.25      -1987.86               
   241 r.245                -1994.77       -1995.3               
   242 r.246                -14.1523      -1987.47               
   243 r.247                 2.23225       -1995.3               
   244 r.248                 1982.85      -1987.47               
   245 r.249                -1993.05      -1994.89               
   246 r.250                -19.5288      -1986.57               
   247 r.251                 3.95393      -1994.89               
   248 r.252                 1977.48      -1986.57               

   No. Column name       Activity     Lower bound   Upper bound
------ ------------    ------------- ------------- -------------
     1 tt                     18.056             0               
     2 s_1_1        *              1             0             1 
     3 t_1_1                 13.8774             0               
     4 s_1_6        *              1             0             1 
     5 s_2_1        *              0             0             1 
     6 t_2_1                 1987.75             0               
     7 s_2_6        *              0             0             1 
     8 s_1_2        *              0             0             1 
     9 t_1_2                 15.4766             0               
    10 s_1_7        *              1             0             1 
    11 s_2_2        *              1             0             1 
    12 t_2_2                 7.15587             0               
    13 s_2_7        *              0             0             1 
    14 s_1_3        *              1             0             1 
    15 t_1_3                 7.67369             0               
    16 s_2_3        *              0             0             1 
    17 t_2_3                 15.7325             0               
    18 s_1_4        *              1             0             1 
    19 t_1_4                 12.7509             0               
    20 s_2_4        *              0             0             1 
    21 t_2_4                 32.1288             0               
    22 s_1_5        *              1             0             1 
    23 t_1_5                 11.0292             0               
    24 s_2_5        *              0             0             1 
    25 t_2_5                 37.5053             0               
    26 t_1_6                 3.80038             0               
    27 t_2_6                 26.1043             0               
    28 t_1_7                       0             0               
    29 t_2_7                 1994.17             0               
    30 s_1_8        *              1             0             1 
    31 t_1_8                 17.9766             0               
    32 s_2_8        *              0             0             1 
    33 t_2_8                 2014.98             0               
    34 u_1_1_2      *              1             0             1 
    35 u_2_1_2      *              0             0             1 
    36 u_1_1_3      *              0             0             1 
    37 u_2_1_3      *              0             0             1 
    38 u_1_1_4      *              0             0             1 
    39 u_2_1_4      *              0             0             1 
    40 u_1_1_5      *              0             0             1 
    41 u_2_1_5      *              0             0             1 
    42 u_1_1_7      *              0             0             1 
    43 u_2_1_7      *              1             0             1 
    44 u_1_2_1      *              0             0             1 
    45 u_2_2_1      *              1             0             1 
    46 u_1_2_3      *              0             0             1 
    47 u_2_2_3      *              1             0             1 
    48 u_1_2_4      *              0             0             1 
    49 u_2_2_4      *              1             0             1 
    50 u_1_2_5      *              0             0             1 
    51 u_2_2_5      *              1             0             1 
    52 u_1_2_6      *              0             0             1 
    53 u_2_2_6      *              1             0             1 
    54 u_1_3_1      *              1             0             1 
    55 u_2_3_1      *              1             0             1 
    56 u_1_3_2      *              1             0             1 
    57 u_2_3_2      *              0             0             1 
    58 u_1_3_5      *              1             0             1 
    59 u_2_3_5      *              1             0             1 
    60 u_1_3_6      *              0             0             1 
    61 u_2_3_6      *              1             0             1 
    62 u_1_4_1      *              1             0             1 
    63 u_2_4_1      *              1             0             1 
    64 u_1_4_2      *              1             0             1 
    65 u_2_4_2      *              0             0             1 
    66 u_1_4_5      *              0             0             1 
    67 u_2_4_5      *              1             0             1 
    68 u_1_4_6      *              0             0             1 
    69 u_2_4_6      *              0             0             1 
    70 u_1_5_1      *              1             0             1 
    71 u_2_5_1      *              1             0             1 
    72 u_1_5_2      *              1             0             1 
    73 u_2_5_2      *              0             0             1 
    74 u_1_5_3      *              0             0             1 
    75 u_2_5_3      *              0             0             1 
    76 u_1_5_4      *              1             0             1 
    77 u_2_5_4      *              0             0             1 
    78 u_1_6_2      *              1             0             1 
    79 u_2_6_2      *              0             0             1 
    80 u_1_6_3      *              1             0             1 
    81 u_2_6_3      *              0             0             1 
    82 u_1_6_4      *              1             0             1 
    83 u_2_6_4      *              1             0             1 
    84 u_1_6_7      *              0             0             1 
    85 u_2_6_7      *              1             0             1 
    86 u_1_7_1      *              1             0             1 
    87 u_2_7_1      *              0             0             1 
    88 u_1_7_6      *              1             0             1 
    89 u_2_7_6      *              0             0             1 

Integer feasibility conditions:

KKT.PE: max.abs.err = 2.27e-13 on row 41
        max.rel.err = 5.67e-17 on row 185
        High quality

KKT.PB: max.abs.err = 2.27e-13 on row 64
        max.rel.err = 1.91e-14 on row 207
        High quality

End of output
